RT is False
Default write of storage_offers_DA.csv just to have a file (but constraint should be inactive)
Reading model...
...model read.
creating competitive generators file...
...competitive generators recorded.
Loading data...
.. day-ahead data read.
Compiling instance...
...instance created.
Creating Offer Mitigation (model will solve as dispatch if TRUE)...
...storage offer mitigation file created
Converting model to MPEC...
...converted
MIP
NOTE: initial MIP solve with only storage competitive to get feasible solution
Solving...

Welcome to IBM(R) ILOG(R) CPLEX(R) Interactive Optimizer 12.9.0.0
  with Simplex, Mixed Integer & Barrier Optimizers
5725-A06 5725-A29 5724-Y48 5724-Y49 5724-Y54 5724-Y55 5655-Y21
Copyright IBM Corp. 1988, 2019.  All Rights Reserved.

Type 'help' for a list of available commands.
Type 'help' followed by a command name for more
information on commands.

CPLEX> Logfile 'cplex.log' closed.
Logfile 'C:\Users\Luke\Desktop\competitiveMPEC_1.16\logs\tmpi3ybl_n7.cplex.log' open.
CPLEX> New value for parallel optimization mode: -1
CPLEX> New value for mixed integer optimality gap tolerance: 0.01
CPLEX> New value for feasibility tolerance: 0.01
CPLEX> New value for deterministic time limit in ticks: 75000
CPLEX> Problem 'C:\Users\Luke\Desktop\competitiveMPEC_1.16\logs\tmpv5tqqn0p.pyomo.lp' read.
Read time = 0.20 sec. (13.82 ticks)
CPLEX> Problem name         : C:\Users\Luke\Desktop\competitiveMPEC_1.16\logs\tmpv5tqqn0p.pyomo.lp
Objective sense      : Maximize
Variables            :   53275  [Nneg: 889,  Box: 21808,  Free: 3480,
                                 Binary: 27098]
Objective nonzeros   :    8922
Linear constraints   :  122140  [Less: 40959,  Greater: 58612,  Equal: 22569]
  Nonzeros           :  288423
  RHS nonzeros       :   66948

Variables            : Min LB: -5000.000        Max UB: 5000.000       
Objective nonzeros   : Min   : 1.600000         Max   : 799.1000       
Linear constraints   :
  Nonzeros           : Min   : 0.8500000        Max   : 2910000.       
  RHS nonzeros       : Min   : 1.000000         Max   : 3000000.       
CPLEX> CPXPARAM_Parallel                                -1
CPXPARAM_Simplex_Tolerances_Feasibility          0.01
CPXPARAM_DetTimeLimit                            75000
CPXPARAM_MIP_Tolerances_MIPGap                   0.01
Tried aggregator 3 times.
MIP Presolve eliminated 88209 rows and 19039 columns.
MIP Presolve added 3324 rows and 0 columns.
MIP Presolve modified 24428 coefficients.
Aggregator did 12869 substitutions.
Reduced MIP has 24386 rows, 20785 columns, and 68391 nonzeros.
Reduced MIP has 8235 binaries, 0 generals, 0 SOSs, and 0 indicators.
Presolve time = 0.25 sec. (166.27 ticks)
Probing fixed 432 vars, tightened 4668 bounds.
Probing time = 0.06 sec. (20.37 ticks)
Tried aggregator 2 times.
MIP Presolve eliminated 972 rows and 870 columns.
MIP Presolve modified 2970 coefficients.
Aggregator did 29 substitutions.
Reduced MIP has 23385 rows, 19886 columns, and 65490 nonzeros.
Reduced MIP has 7800 binaries, 0 generals, 0 SOSs, and 0 indicators.
Presolve time = 0.11 sec. (89.16 ticks)
Probing fixed 0 vars, tightened 203 bounds.
Probing time = 0.09 sec. (22.87 ticks)
Clique table members: 40595.
MIP emphasis: balance optimality and feasibility.
MIP search method: dynamic search.
Parallel mode: opportunistic, using up to 24 threads.
Root relaxation solution time = 0.31 sec. (259.66 ticks)

        Nodes                                         Cuts/
   Node  Left     Objective  IInf  Best Integer    Best Bound    ItCnt     Gap

      0     0    82560.6077  1417                  82560.6077     5927         
      0     0    82498.8370   442                   Cuts: 838     6216         
      0     0    82408.4135   307                   Cuts: 606     6392         
      0     0    82346.3056   259                   Cuts: 244     6479         
      0     0    82340.8716   233                   Cuts: 120     6517         
      0     0    81531.7980   221                    Cuts: 86     6575         
      0     0    81528.4969   218                    Cuts: 88     6595         
      0     0    81528.3971   218                    Cuts: 45     6603         
      0    12    65790.1091   219                     Cuts: 4     6758         
Elapsed time = 5.00 sec. (3532.47 ticks, tree = 0.02 MB, solutions = 0)
    421   107    66897.1479   140                  75721.8639     8085         
    713   555    55208.1941   140                  75721.8639    12737         
    922   697    66785.9228   133                  75721.8639    13634         
   1388   792    61014.8048   144                  75721.8639    14141         
   2013  1579    59866.1171    83                  75721.8639    17446         
*  2739+ 1598                        60231.4379    75721.8639            25.72%
   3341  1723    63361.6701    66    60274.2633    75721.8639    18458   25.63%
   4016  1978    73227.4533   171    60840.2753    75721.8639    18947   24.46%
   4600  2074    65620.5501    98    65620.5501    75721.8639    19361   15.39%
*  5908  1509      integral     0    70009.6052    75709.9903    21012    8.14%
   6145  1505    68242.8254   147    70009.6052    75709.9903    21052    8.14%
Elapsed time = 12.34 sec. (6635.39 ticks, tree = 7.76 MB, solutions = 8)
   6162  1772        cutoff          70009.6052    75709.9903    32679    8.14%
   6503    80        cutoff          70009.6052    71438.4104    34978    2.04%
   6832    63    71296.1732    55    70009.6052    71438.4104    34775    2.04%

GUB cover cuts applied:  1
Cover cuts applied:  2
Implied bound cuts applied:  3
Flow cuts applied:  207
Mixed integer rounding cuts applied:  26
Gomory fractional cuts applied:  74

Root node processing (before b&c):
  Real time             =    4.56 sec. (3506.06 ticks)
Parallel b&c, 24 threads:
  Real time             =   17.88 sec. (9381.31 ticks)
  Sync time (average)   =    2.31 sec.
  Wait time (average)   =    0.06 sec.
                          ------------
Total (root+branch&cut) =   22.44 sec. (12887.38 ticks)

Solution pool: 8 solutions saved.

MIP - Integer optimal, tolerance (0.01/1e-06):  Objective =  7.0009605182e+04
Current MIP best bound =  7.0706965583e+04 (gap = 697.36, 1.00%)
Solution time =   22.44 sec.  Iterations = 37182  Nodes = 6853 (156)
Deterministic time = 12887.53 ticks  (574.39 ticks/sec)

CPLEX> Incumbent solution written to file 'C:\Users\Luke\Desktop\competitiveMPEC_1.16\logs\tmp9vx9_9ie.cplex.sol'.
CPLEX> Exporting results... 
